\ Model Cl_35_Ins_1.lp
\ LP format - for model browsing. Use MPS format to capture full model detail.
Maximize
 
Subject To
 obj1: y[0] = 0
 obj2: y[1] = 0
 obj1_Exp: - y[0] + 99 x[0] + 92 x[1] + 91 x[2] + 89 x[3] + 87 x[4]
   + 86 x[5] + 82 x[6] + 80 x[7] + 78 x[8] + 77 x[9] + 77 x[10] + 74 x[11]
   + 71 x[12] + 70 x[13] + 66 x[14] + 64 x[15] + 60 x[16] + 57 x[17]
   + 56 x[18] + 55 x[19] + 52 x[20] + 50 x[21] + 49 x[22] + 47 x[23]
   + 45 x[24] + 45 x[25] + 44 x[26] + 43 x[27] + 38 x[28] + 34 x[29]
   + 31 x[30] + 26 x[31] + 13 x[32] + 9 x[33] + 9 x[34] = 0
 obj2_Exp: - y[1] + 4 x[0] + 78 x[1] + 31 x[2] + 74 x[3] + 51 x[4] + 4 x[5]
   + 74 x[6] + 3 x[7] + 22 x[8] + 38 x[9] + 82 x[10] + 26 x[11] + 23 x[12]
   + 68 x[13] + 16 x[14] + 94 x[15] + 20 x[16] + 24 x[17] + 56 x[18]
   + 78 x[19] + 91 x[20] + 38 x[21] + 56 x[22] + 55 x[23] + 74 x[24]
   + 61 x[25] + 14 x[26] + 88 x[27] + 64 x[28] + 17 x[29] + 60 x[30]
   + 14 x[31] + 11 x[32] + 34 x[33] + 49 x[34] = 0
 Budget: 109 x[0] + 102 x[1] + 101 x[2] + 99 x[3] + 97 x[4] + 96 x[5]
   + 92 x[6] + 90 x[7] + 88 x[8] + 87 x[9] + 87 x[10] + 84 x[11] + 81 x[12]
   + 80 x[13] + 76 x[14] + 74 x[15] + 70 x[16] + 67 x[17] + 66 x[18]
   + 65 x[19] + 62 x[20] + 60 x[21] + 59 x[22] + 57 x[23] + 55 x[24]
   + 55 x[25] + 54 x[26] + 53 x[27] + 48 x[28] + 44 x[29] + 41 x[30]
   + 36 x[31] + 23 x[32] + 19 x[33] + 19 x[34] <= 858
Bounds
Binaries
 x[0] x[1] x[2] x[3] x[4] x[5] x[6] x[7] x[8] x[9] x[10] x[11] x[12] x[13]
 x[14] x[15] x[16] x[17] x[18] x[19] x[20] x[21] x[22] x[23] x[24] x[25]
 x[26] x[27] x[28] x[29] x[30] x[31] x[32] x[33] x[34]
Generals
 y[0] y[1]
End
